p tw 20 115
0 1
0 2
0 14
0 15
0 13
0 5
0 4
0 8
0 3
0 11
0 7
0 17
1 2
1 14
1 18
1 8
1 9
1 17
1 13
1 3
1 16
2 8
2 4
2 19
2 5
2 18
2 9
2 15
2 3
2 6
3 4
3 5
3 14
3 15
3 17
3 9
3 19
3 6
4 5
4 15
4 17
4 10
4 19
4 12
4 8
4 6
4 11
4 18
4 16
5 12
5 13
5 15
5 18
5 19
5 14
5 7
5 9
5 6
5 11
5 17
6 7
6 8
6 10
6 11
6 16
6 19
6 18
6 9
6 17
7 8
7 14
7 18
7 16
7 9
7 17
8 10
8 15
8 16
8 9
8 14
9 10
9 11
9 17
9 18
9 14
9 16
10 11
10 15
10 13
10 16
11 16
11 18
11 14
11 15
12 13
12 17
12 14
12 18
12 16
12 15
13 16
14 15
14 16
14 17
14 18
15 17
15 18
15 19
15 16
16 17
16 19
16 18
17 19
17 18
18 19
